\ This file has been generated by DOcplex
\ ENCODING=ISO-8859-1
\Problem name: Delay minimization

Minimize
 obj: 30000 allocate_C0_V1 + 30000 allocate_C0_V2 + 30000 allocate_C0_V3
      + 30000 allocate_C0_V4 + 30000 allocate_C0_V5 + 1500 allocate_C2_V1
      + 1500 allocate_C2_V2 + 1500 allocate_C2_V3 + 1500 allocate_C2_V4
      + 1500 allocate_C2_V5 + 1200 allocate_C3_V1 + 1200 allocate_C3_V2
      + 1200 allocate_C3_V3 + 1200 allocate_C3_V4 + 1200 allocate_C3_V5
Subject To
 storageConstr: 150 allocate_C0_V1 + 150 allocate_C0_V2 + 170 allocate_C0_V3
                + 180 allocate_C0_V4 + 190 allocate_C0_V5 <= 500000
 storageConstr#1: 150 allocate_C1_V1 + 150 allocate_C1_V2 + 170 allocate_C1_V3
                  + 180 allocate_C1_V4 + 190 allocate_C1_V5 <= 510
 storageConstr#2: 150 allocate_C2_V1 + 150 allocate_C2_V2 + 170 allocate_C2_V3
                  + 180 allocate_C2_V4 + 190 allocate_C2_V5 <= 520
 storageConstr#3: 150 allocate_C3_V1 + 150 allocate_C3_V2 + 170 allocate_C3_V3
                  + 180 allocate_C3_V4 + 190 allocate_C3_V5 <= 530
 cpuConstr: 2100 allocate_C0_V1 + 2200 allocate_C0_V2 + 2300 allocate_C0_V3
            + 2400 allocate_C0_V4 + 2500 allocate_C0_V5 <= 3000000
 cpuConstr#5: 2100 allocate_C1_V1 + 2200 allocate_C1_V2 + 2300 allocate_C1_V3
              + 2400 allocate_C1_V4 + 2500 allocate_C1_V5 <= 3100
 cpuConstr#6: 2100 allocate_C2_V1 + 2200 allocate_C2_V2 + 2300 allocate_C2_V3
              + 2400 allocate_C2_V4 + 2500 allocate_C2_V5 <= 3100
 cpuConstr#7: 2100 allocate_C3_V1 + 2200 allocate_C3_V2 + 2300 allocate_C3_V3
              + 2400 allocate_C3_V4 + 2500 allocate_C3_V5 <= 5300
 ramConstr: 120 allocate_C0_V1 + 220 allocate_C0_V2 + 320 allocate_C0_V3
            + 420 allocate_C0_V4 + 520 allocate_C0_V5 <= 120000
 ramConstr#9: 120 allocate_C1_V1 + 220 allocate_C1_V2 + 320 allocate_C1_V3
              + 420 allocate_C1_V4 + 520 allocate_C1_V5 <= 420
 ramConstr#10: 120 allocate_C2_V1 + 220 allocate_C2_V2 + 320 allocate_C2_V3
               + 420 allocate_C2_V4 + 520 allocate_C2_V5 <= 420
 ramConstr#11: 120 allocate_C3_V1 + 220 allocate_C3_V2 + 320 allocate_C3_V3
               + 420 allocate_C3_V4 + 520 allocate_C3_V5 <= 680
 AllocationConst: allocate_C0_V1 + allocate_C1_V1 + allocate_C2_V1
                  + allocate_C3_V1 = 1
 AllocationConst#13: allocate_C0_V2 + allocate_C1_V2 + allocate_C2_V2
                     + allocate_C3_V2 = 1
 AllocationConst#14: allocate_C0_V3 + allocate_C1_V3 + allocate_C2_V3
                     + allocate_C3_V3 = 1
 AllocationConst#15: allocate_C0_V4 + allocate_C1_V4 + allocate_C2_V4
                     + allocate_C3_V4 = 1
 AllocationConst#16: allocate_C0_V5 + allocate_C1_V5 + allocate_C2_V5
                     + allocate_C3_V5 = 1

Bounds
 0 <= allocate_C0_V1 <= 1
 0 <= allocate_C0_V2 <= 1
 0 <= allocate_C0_V3 <= 1
 0 <= allocate_C0_V4 <= 1
 0 <= allocate_C0_V5 <= 1
 0 <= allocate_C1_V1 <= 1
 0 <= allocate_C1_V2 <= 1
 0 <= allocate_C1_V3 <= 1
 0 <= allocate_C1_V4 <= 1
 0 <= allocate_C1_V5 <= 1
 0 <= allocate_C2_V1 <= 1
 0 <= allocate_C2_V2 <= 1
 0 <= allocate_C2_V3 <= 1
 0 <= allocate_C2_V4 <= 1
 0 <= allocate_C2_V5 <= 1
 0 <= allocate_C3_V1 <= 1
 0 <= allocate_C3_V2 <= 1
 0 <= allocate_C3_V3 <= 1
 0 <= allocate_C3_V4 <= 1
 0 <= allocate_C3_V5 <= 1

Binaries
 allocate_C0_V1 allocate_C0_V2 allocate_C0_V3 allocate_C0_V4 allocate_C0_V5
 allocate_C1_V1 allocate_C1_V2 allocate_C1_V3 allocate_C1_V4 allocate_C1_V5
 allocate_C2_V1 allocate_C2_V2 allocate_C2_V3 allocate_C2_V4 allocate_C2_V5
 allocate_C3_V1 allocate_C3_V2 allocate_C3_V3 allocate_C3_V4 allocate_C3_V5
End
